c ren 1 -> 1
c ren 2 -> 2
c ren 3 -> 3
c ren 4 -> 4
c ren 5 -> 5
c ren 6 -> 6
c ren 7 -> 7
c ren 8 -> 8
c ren 9 -> 9
c ren 10 -> 10
c ren 11 -> 11
c ren 12 -> 12
c ren 13 -> 13
c ren 14 -> 14
c ren 15 -> 15
c ren 16 -> 16
c ren 17 -> 17
c ren 18 -> 18
c ren 19 -> 19
c ren 20 -> 20
c ren 21 -> 21
c ren 22 -> 22
c ren 23 -> 23
c ren 24 -> 24
c ren 25 -> 25
c ren 26 -> 26
c ren 27 -> 27
c ren 28 -> 28
c ren 29 -> 29
c ren 30 -> 30
c ren 31 -> 31
c ren 32 -> 32
c ren 33 -> 33
c ren 36 -> 34
c ren 39 -> 35
c ren 54 -> 36
c ren 90 -> 37
c ren 122 -> 38
c ren 129 -> 39
c ren 139 -> 40
c ren 143 -> 41
c ren 155 -> 42
c ren 162 -> 43
c ren 166 -> 44
c ren 168 -> 45
c ren 169 -> 46
c ren 170 -> 47
c ren 171 -> 48
c ren 172 -> 49
c ren 173 -> 50
c ren 174 -> 51
c ren 175 -> 52
c ren 176 -> 53
c ren 177 -> 54
c ren 178 -> 55
c ren 179 -> 56
c ren 180 -> 57
c ren 181 -> 58
c ren 182 -> 59
c ren 183 -> 60
c ren 184 -> 61
c ren 185 -> 62
c ren 186 -> 63
c ren 187 -> 64
c ren 188 -> 65
c ren 189 -> 66
c ren 190 -> 67
c ren 191 -> 68
c ren 192 -> 69
c ren 193 -> 70
c ren 194 -> 71
c ren 195 -> 72
c ren 196 -> 73
c ren 197 -> 74
c ren 198 -> 75
c ren 199 -> 76
c ren 200 -> 77
c ren 201 -> 78
c ren 202 -> 79
c ren 203 -> 80
c ren 204 -> 81
c ren 205 -> 82
c ren 206 -> 83
c ren 207 -> 84
c ren 208 -> 85
c ren 209 -> 86
c ren 210 -> 87
c ren 211 -> 88
c ren 212 -> 89
c ren 213 -> 90
c ren 214 -> 91
c ren 215 -> 92
c ren 216 -> 93
c ren 217 -> 94
c ren 218 -> 95
c ren 219 -> 96
c ren 220 -> 97
c ren 221 -> 98
c ren 222 -> 99
c ren 223 -> 100
c ren 224 -> 101
c ren 225 -> 102
c ren 226 -> 103
c ren 227 -> 104
c ren 228 -> 105
c ren 229 -> 106
c ren 230 -> 107
c ren 231 -> 108
c ren 232 -> 109
c ren 233 -> 110
c ren 234 -> 111
c ren 235 -> 112
c ren 261 -> 113
c ren 262 -> 114
c ren 327 -> 115
c ren 328 -> 116
c ren 329 -> 117
c ren 330 -> 118
c ren 331 -> 119
c ren 332 -> 120
c ren 333 -> 121
c ren 334 -> 122
c ren 335 -> 123
c ren 336 -> 124
c ren 337 -> 125
c ren 338 -> 126
c ren 339 -> 127
c ren 340 -> 128
c ren 341 -> 129
c ren 342 -> 130
c ren 343 -> 131
c ren 344 -> 132
c ren 345 -> 133
c ren 346 -> 134
c ren 347 -> 135
c ren 348 -> 136
c ren 349 -> 137
c ren 350 -> 138
c ren 351 -> 139
c ren 352 -> 140
c ren 353 -> 141
c ren 354 -> 142
c ren 355 -> 143
c ren 356 -> 144
c ren 357 -> 145
c ren 358 -> 146
c ren 359 -> 147
c ren 360 -> 148
c ren 361 -> 149
c ren 362 -> 150
c ren 363 -> 151
c ren 364 -> 152
c ren 365 -> 153
c ren 366 -> 154
c ren 367 -> 155
c ren 368 -> 156
c ren 369 -> 157
c ren 370 -> 158
c ren 371 -> 159
c ren 372 -> 160
c ren 373 -> 161
c ren 374 -> 162
c ren 375 -> 163
c ren 376 -> 164
p cnf 164 462
a 1 2 3 4 5 6 7 8 9 10 11 12 13 14 15 16 17 18 19 20 21 22 23 24 25 26 27 28 29 30 31 32 62 63 64 65 66 67 68 69 70 71 72 73 74 75 76 77 78 79 80 81 82 83 84 85 86 87 88 89 90 91 92 93 94 95 96 97 98 99 100 101 102 103 104 105 106 107 108 109 110 111 112 0
d 45 64 65 0
d 46 72 73 0
d 47 68 69 0
d 48 80 81 0
d 49 82 83 84 85 86 87 88 89 0
d 50 82 83 84 85 86 87 88 89 0
d 51 76 77 0
d 52 98 99 100 101 102 103 104 105 0
d 53 98 99 100 101 102 103 104 105 0
d 54 66 67 0
d 55 62 63 0
d 56 106 107 108 109 110 111 112 0
d 57 90 91 92 93 94 95 96 97 0
d 58 90 91 92 93 94 95 96 97 0
d 59 78 79 0
d 60 70 71 0
d 61 74 75 0
e 33 34 35 36 37 38 39 40 41 42 43 44 113 114 115 116 117 118 119 120 121 122 123 124 125 126 127 128 129 130 131 132 133 134 135 136 137 138 139 140 141 142 143 144 145 146 147 148 149 150 151 152 153 154 155 156 157 158 159 160 161 162 163 164 0
-11 -33 0
27 -33 0
10 12 -27 28 33 34 61 -105 -159 0
-33 105 -159 0
-10 -34 0
26 -34 0
-26 -103 -157 0
14 15 36 38 -40 41 -42 -43 0
-10 26 103 -157 0
-9 -35 0
25 -35 0
9 -25 35 0
-25 -34 -36 0
-35 -44 0
-11 27 105 -159 0
7 -21 -22 -23 37 0
12 -101 -155 0
36 38 -39 -42 -43 0
10 11 -12 -28 33 34 61 -105 -159 0
9 10 11 -28 -36 0
-10 26 105 -159 0
9 11 -26 -28 -36 0
11 12 -26 28 33 34 61 -105 -159 0
7 -21 -22 -23 42 0
-12 28 36 38 -42 -43 0
-5 -8 -21 -24 46 60 -97 -151 0
10 11 -25 -28 -36 0
-34 -44 0
9 -34 -36 0
-17 -88 -142 0
10 34 99 -153 0
-11 27 -98 -152 0
10 -25 -33 -36 0
9 11 12 -26 -36 0
11 -12 -26 -28 33 34 61 -105 -159 0
-2 -4 17 19 -38 43 0
-11 27 36 38 -42 -43 0
14 15 16 28 30 31 32 33 34 35 36 37 38 39 -40 -42 44 0
12 -28 105 -159 0
-5 -6 -7 23 -42 0
7 -21 -22 -24 42 0
-12 28 -44 0
-5 -6 7 -8 -22 23 -24 -37 0
-14 -15 28 31 33 34 35 37 38 39 43 0
-14 15 16 28 -30 31 32 33 34 35 36 37 38 39 -40 -42 44 0
-14 15 -16 28 -30 31 -32 33 34 35 36 37 38 39 -40 -42 44 0
-28 -101 -155 0
6 8 -21 -23 -24 37 0
-12 -14 15 -16 -30 31 -32 33 34 35 36 37 38 39 -40 -42 44 0
-34 105 -159 0
-5 -7 -8 22 24 -42 0
-5 8 -21 24 46 60 -97 -151 0
-12 -26 -27 -28 33 34 61 -105 -159 0
12 -28 -44 0
-36 -44 0
5 -21 -92 -146 0
5 6 -22 37 0
8 -21 -22 -23 42 0
-33 36 38 -42 -43 0
-5 21 -92 -146 0
5 6 7 8 42 0
5 7 -22 -24 42 0
7 -94 -148 0
6 -7 8 21 22 -23 24 -37 0
6 7 -21 -23 37 0
5 6 8 -23 -24 37 0
-1 -2 -3 19 43 0
5 7 8 -22 -24 37 0
-7 -8 21 22 24 -42 0
5 7 -22 -23 42 0
-5 21 97 -151 0
8 -93 -147 0
5 -22 -23 -24 42 0
-5 21 -42 0
6 7 8 -21 42 0
6 7 -21 -23 42 0
-6 7 -8 21 -22 23 -24 -37 0
6 -21 -22 42 0
5 6 7 -23 37 0
-24 -93 -147 0
5 -21 37 0
6 7 -21 -24 42 0
5 -21 42 0
5 8 -22 -23 -24 37 0
-6 -7 -8 21 24 -42 0
-6 -7 -8 21 -22 -23 -24 -37 0
5 6 -22 42 0
5 6 8 -23 42 0
8 -24 97 -151 0
5 6 7 -23 42 0
8 -21 -22 -23 -24 37 0
-8 21 22 23 24 -42 0
5 7 8 -22 42 0
-6 -7 8 21 -22 -23 24 -37 0
-23 -94 -148 0
-21 -22 -23 -24 42 0
5 7 -22 -23 37 0
-22 -95 -149 0
5 6 7 8 -24 37 0
-4 17 18 19 -38 43 0
-2 -4 17 19 20 43 0
-6 7 8 21 -22 23 24 -37 0
6 -95 -149 0
-36 37 38 43 0
6 8 -21 -23 42 0
2 4 -17 -19 -38 -43 0
1 2 -18 -43 0
1 17 84 -138 0
-2 18 -83 -137 0
2 -87 -141 0
1 3 -18 -19 -43 0
1 -17 -43 0
2 -18 89 -143 0
2 3 4 -17 -38 -43 0
-1 -3 18 19 43 0
-4 17 18 19 20 43 0
-1 -2 4 -17 -18 20 45 -89 -143 0
-1 -3 -4 18 -38 43 0
1 2 -19 -20 -38 -43 0
-18 -87 -141 0
9 10 12 -27 -36 0
-1 -2 -3 -4 20 43 0
-1 17 -84 -138 0
-1 -2 18 43 0
1 -88 -142 0
1 2 3 -19 -38 -43 0
1 3 -18 -20 -38 -43 0
3 -17 -18 -19 -43 0
-1 17 88 -142 0
-3 -4 17 18 -38 43 0
-2 18 89 -143 0
4 -20 89 -143 0
-1 -3 -4 18 20 43 0
-4 20 38 0
1 -17 89 -143 0
1 2 3 4 -38 -43 0
2 -18 -83 -137 0
-3 19 38 0
-30 -31 36 38 -40 41 -42 -43 0
-14 -15 16 32 39 -40 -113 0
15 -31 -41 0
-1 2 -4 -17 18 -20 45 -89 -143 0
-5 6 -7 -8 22 -23 -24 -37 0
14 15 16 -32 -48 113 0
-14 15 -16 -30 31 32 39 -40 41 0
15 -16 -30 32 41 -48 113 0
-15 30 31 39 -40 114 0
14 -30 -41 0
-5 -6 -7 -8 -22 -23 -24 -37 0
14 15 -31 -44 0
15 -30 41 -48 -114 0
-16 32 -44 0
50 58 -111 -112 115 116 117 118 119 120 121 122 123 124 125 126 127 128 129 130 131 132 133 134 135 136 137 138 139 140 141 142 143 144 145 146 147 148 149 150 151 152 153 154 155 156 157 158 159 160 161 162 163 164 0
-13 -39 0
29 -39 0
-2 -3 -4 17 20 43 0
-5 6 7 -8 22 23 -24 -37 0
-52 53 -106 -160 0
-14 30 39 -40 114 0
-12 -14 -15 -30 -31 32 33 34 35 36 37 38 39 -40 41 -42 44 0
3 4 -17 -18 -38 -43 0
7 8 -21 -22 -24 37 0
-1 17 38 0
-15 16 30 -31 32 39 -40 -113 0
13 40 0
-29 40 0
-5 6 7 8 22 23 24 -37 0
14 -30 -44 0
-14 30 -44 0
-14 -16 31 -32 39 -40 -113 0
-12 14 -15 30 -31 32 33 34 35 36 37 38 39 -40 41 -42 44 0
14 15 -16 30 31 32 39 -40 41 0
14 15 16 -32 -44 0
15 -30 -31 -48 113 0
-39 -44 0
14 -31 41 -48 -114 0
44 49 50 -52 -53 57 58 113 114 -115 0
-14 -15 31 39 -40 114 0
14 15 41 -48 -114 0
-12 14 15 30 31 32 33 34 35 36 37 38 39 -40 41 -42 44 0
15 -16 30 31 -32 39 -40 -113 0
15 16 -30 -32 -48 113 0
3 -17 -18 -20 -38 -43 0
44 -49 -50 -52 -53 57 58 113 114 -115 0
14 -16 -31 32 41 -48 113 0
-15 31 -44 0
-1 17 43 0
-32 -41 0
14 15 -16 32 41 -48 113 0
40 -41 0
-14 -15 -16 -30 -31 32 39 -40 41 0
-52 -53 106 -160 0
-41 -44 0
-5 -21 92 -146 0
40 -44 0
14 16 -31 -32 -48 113 0
-3 17 18 19 43 0
-5 6 -7 8 22 -23 24 -37 0
5 6 -23 -24 42 0
-37 38 -42 -43 0
14 -30 36 38 -40 -42 -43 0
14 -31 36 38 -40 41 -42 -43 0
38 42 43 0
6 -21 -23 -24 42 0
11 33 98 -152 0
-12 -14 30 33 34 35 37 38 39 43 0
-14 -15 16 28 -30 -31 32 33 34 35 36 37 38 39 -40 -42 44 0
-12 -14 -15 31 33 34 35 37 38 39 43 0
-14 -15 -16 -32 39 -40 -113 0
-5 -6 22 -42 0
-1 18 19 20 -38 43 0
-39 -48 -114 0
15 -30 36 38 -40 41 -42 -43 0
6 7 8 -21 -24 37 0
-11 27 34 35 36 0
9 10 -33 -36 0
14 -15 -16 30 -31 32 39 -40 41 0
14 -30 -48 -114 0
-15 -16 30 -31 -32 39 -40 -113 0
-16 -30 -31 32 41 -48 113 0
-15 28 30 31 33 34 35 37 38 39 43 0
40 -48 -114 0
14 15 -31 -48 113 0
15 -30 -31 -44 0
-12 33 34 35 37 38 -41 43 0
42 -44 0
-38 -44 0
9 10 11 12 -36 0
-37 -44 0
-1 2 4 -17 18 20 45 -89 -143 0
-2 -3 -4 17 -38 43 0
-1 -2 -3 -4 -38 43 0
44 -49 -50 -52 -53 -57 -58 113 114 -115 0
16 -30 -31 -32 -48 113 0
14 16 -31 -32 -44 0
-5 -6 -7 -8 24 -42 0
-5 -6 -7 8 -22 -23 24 -37 0
-2 17 18 43 0
-44 -113 -115 0
15 16 -30 -32 -44 0
-2 -3 17 19 43 0
13 -29 39 0
53 -110 -164 0
-13 29 -40 0
-1 -2 -4 -17 -18 -20 45 -89 -143 0
-12 -14 -15 -16 -30 -31 -32 33 34 35 36 37 38 39 -40 -42 44 0
-1 -17 84 -138 0
1 -18 -19 -20 -38 -43 0
-1 -2 19 20 -38 43 0
49 -50 58 -111 112 115 116 117 118 119 120 121 122 123 124 125 126 127 128 129 130 131 132 133 134 135 136 137 138 139 140 141 142 143 144 145 146 147 148 149 150 151 152 153 154 155 156 157 158 159 160 161 162 163 164 0
-1 -2 -3 20 -38 43 0
-2 -18 83 -137 0
-57 58 -107 -161 0
-2 18 87 -141 0
14 -30 -48 113 0
-12 14 -15 -16 30 -31 -32 33 34 35 36 37 38 39 -40 -42 44 0
-30 -31 41 -48 -114 0
16 -41 0
15 16 30 31 32 39 -40 -113 0
48 -113 0
2 -17 -18 -43 0
4 -17 -18 -19 -38 -43 0
16 -30 -31 -32 -44 0
12 -28 36 38 -42 -43 0
44 49 50 -52 -53 -57 -58 113 114 -115 0
-5 -6 7 8 -22 23 24 -37 0
4 -20 38 0
-41 114 0
-14 16 31 32 39 -40 -113 0
-5 -7 22 23 -42 0
-41 -113 0
-12 -14 15 -30 31 32 33 34 35 36 37 38 39 -40 41 -42 44 0
-12 14 15 -16 30 31 -32 33 34 35 36 37 38 39 -40 -42 44 0
48 114 0
44 49 50 52 53 57 58 113 114 -115 0
10 -103 -157 0
-5 -8 22 23 24 -42 0
-44 -52 53 -115 0
-52 -110 -164 0
49 -50 -57 -111 112 115 116 117 118 119 120 121 122 123 124 125 126 127 128 129 130 131 132 133 134 135 136 137 138 139 140 141 142 143 144 145 146 147 148 149 150 151 152 153 154 155 156 157 158 159 160 161 162 163 164 0
50 57 -58 111 -112 115 116 117 118 119 120 121 122 123 124 125 126 127 128 129 130 131 132 133 134 135 136 137 138 139 140 141 142 143 144 145 146 147 148 149 150 151 152 153 154 155 156 157 158 159 160 161 162 163 164 0
-44 -57 58 -115 0
44 49 50 52 53 -57 -58 113 114 -115 0
50 -57 -111 -112 115 116 117 118 119 120 121 122 123 124 125 126 127 128 129 130 131 132 133 134 135 136 137 138 139 140 141 142 143 144 145 146 147 148 149 150 151 152 153 154 155 156 157 158 159 160 161 162 163 164 0
-49 57 -58 111 -112 115 116 117 118 119 120 121 122 123 124 125 126 127 128 129 130 131 132 133 134 135 136 137 138 139 140 141 142 143 144 145 146 147 148 149 150 151 152 153 154 155 156 157 158 159 160 161 162 163 164 0
-44 -49 50 -115 0
49 -50 57 -58 111 112 115 116 117 118 119 120 121 122 123 124 125 126 127 128 129 130 131 132 133 134 135 136 137 138 139 140 141 142 143 144 145 146 147 148 149 150 151 152 153 154 155 156 157 158 159 160 161 162 163 164 0
-49 -57 -111 -112 115 116 117 118 119 120 121 122 123 124 125 126 127 128 129 130 131 132 133 134 135 136 137 138 139 140 141 142 143 144 145 146 147 148 149 150 151 152 153 154 155 156 157 158 159 160 161 162 163 164 0
-44 52 -53 -115 0
52 53 106 -160 0
57 -58 -107 -161 0
1 3 4 -18 -38 -43 0
2 3 -17 -19 -43 0
-3 -4 17 18 20 43 0
2 -17 -19 -20 -38 -43 0
2 3 -17 -20 -38 -43 0
-1 -4 18 19 20 43 0
1 2 4 17 18 20 45 -89 -143 0
-2 17 19 20 -38 43 0
-1 -2 -4 19 20 43 0
1 -2 -4 17 -18 -20 45 -89 -143 0
1 -17 -84 -138 0
-17 -18 -19 -20 -38 -43 0
3 -19 38 0
6 -21 -22 37 0
1 4 -18 -19 -38 -43 0
5 8 21 24 46 60 -97 -151 0
-4 20 89 -143 0
-34 36 38 -42 -43 0
-1 -2 -4 19 -38 43 0
9 -26 -33 -36 0
-7 21 22 23 -42 0
-2 18 38 0
-5 21 -37 0
5 8 -22 -23 42 0
9 -26 -27 -28 -36 0
11 -27 33 0
10 11 12 28 33 34 61 -105 -159 0
10 -26 34 0
-12 28 33 34 35 36 0
-12 -15 30 31 33 34 35 37 38 39 43 0
14 15 -16 28 30 31 -32 33 34 35 36 37 38 39 -40 -42 44 0
-5 -6 -8 23 24 -42 0
-34 -99 -153 0
14 -15 -16 28 30 -31 -32 33 34 35 36 37 38 39 -40 -42 44 0
14 -15 16 28 30 -31 32 33 34 35 36 37 38 39 -40 -42 44 0
12 -25 -26 -27 -36 0
-35 38 -42 -43 0
-49 58 -111 -112 115 116 117 118 119 120 121 122 123 124 125 126 127 128 129 130 131 132 133 134 135 136 137 138 139 140 141 142 143 144 145 146 147 148 149 150 151 152 153 154 155 156 157 158 159 160 161 162 163 164 0
49 50 108 -162 0
-44 -114 -115 0
-12 33 34 35 37 38 40 43 0
52 -53 -106 -160 0
49 -50 -108 -162 0
-44 57 -58 -115 0
57 58 107 -161 0
43 -56 -115 0
-43 56 -115 0
-44 49 -50 -115 0
-39 -41 0
-49 50 -108 -162 0
-3 -62 -116 0
10 12 -25 -27 -36 0
3 62 -116 0
-19 -63 -117 0
19 63 -117 0
-3 -64 -118 0
3 64 -118 0
-19 -65 -119 0
-9 25 36 0
19 65 -119 0
-4 -66 -120 0
9 12 -26 -27 -36 0
-1 -4 18 19 -38 43 0
4 66 -120 0
-20 -67 -121 0
9 10 -27 -28 -36 0
20 67 -121 0
-5 -68 -122 0
5 68 -122 0
-21 -69 -123 0
21 69 -123 0
-6 -70 -124 0
10 -12 -27 -28 33 34 61 -105 -159 0
6 70 -124 0
-22 -71 -125 0
10 -25 -27 -28 -36 0
22 71 -125 0
-7 -72 -126 0
11 -25 -26 -28 -36 0
7 72 -126 0
-23 -73 -127 0
23 73 -127 0
-9 -74 -128 0
9 74 -128 0
-25 -75 -129 0
25 75 -129 0
-9 -76 -130 0
12 -26 -27 28 33 34 61 -105 -159 0
9 76 -130 0
-25 -77 -131 0
-25 -26 -33 -36 0
25 77 -131 0
-11 -78 -132 0
11 78 -132 0
-27 -79 -133 0
27 79 -133 0
-13 -80 -134 0
11 12 -25 -26 -36 0
13 80 -134 0
-29 -81 -135 0
29 81 -135 0
-45 -82 -136 0
45 82 -136 0
2 -18 38 0
1 -2 4 17 -18 20 45 -89 -143 0
17 18 19 20 -38 43 0
1 -17 38 0
1 2 -4 17 18 -20 45 -89 -143 0
-54 -85 -139 0
-26 34 99 -153 0
54 85 -139 0
-55 -86 -140 0
55 86 -140 0
2 18 83 -137 0
-1 -3 18 20 -38 43 0
1 2 3 -20 -38 -43 0
1 2 4 -19 -38 -43 0
-1 17 89 -143 0
-46 -90 -144 0
-2 -3 17 20 -38 43 0
46 90 -144 0
-60 -91 -145 0
60 91 -145 0
5 -8 21 -24 46 60 -97 -151 0
5 -21 97 -151 0
6 -7 -8 21 22 -23 -24 -37 0
-6 21 22 -42 0
-8 24 93 -147 0
-8 24 97 -151 0
5 6 7 -24 42 0
-6 -8 21 23 24 -42 0
-7 23 94 -148 0
-6 -7 21 23 -42 0
6 7 8 21 22 23 24 -37 0
-6 22 95 -149 0
6 7 -8 21 22 23 -24 -37 0
-47 -96 -150 0
-3 17 18 20 -38 43 0
47 96 -150 0
5 21 92 -146 0
-46 97 -151 0
-33 -44 0
28 33 34 35 37 38 40 43 0
7 8 -21 -22 42 0
-27 33 98 -152 0
-14 -15 -16 28 -30 -31 -32 33 34 35 36 37 38 39 -40 -42 44 0
-61 -100 -154 0
61 100 -154 0
28 33 34 35 37 38 -41 43 0
-14 28 30 33 34 35 37 38 39 43 0
-12 28 101 -155 0
-12 28 105 -159 0
-59 -102 -156 0
59 102 -156 0
10 11 12 -25 -36 0
-25 -26 -27 -28 -36 0
-10 26 -99 -153 0
-51 -104 -158 0
51 104 -158 0
-33 -98 -152 0
-10 26 35 36 0
44 -49 -50 52 53 57 58 113 114 -115 0
-49 -50 108 -162 0
-57 -58 107 -161 0
-109 114 -163 0
109 -114 -163 0
52 -53 110 -164 0
-60 97 -151 0
44 -49 -50 52 53 -57 -58 113 114 -115 0
-61 105 -159 0
-45 89 -143 0
